(set-info :smt-lib-version 2.6)
(set-logic QF_BV)
(set-info :source |
 Patrice Godefroid, SAGE (systematic dynamic test generation)
 For more information: http://research.microsoft.com/en-us/um/people/pg/public_psfiles/ndss2008.pdf
|)
(set-info :category "industrial")
(set-info :status unsat)
(declare-fun T1_119 () (_ BitVec 8))
(assert (let ((?v_0 ((_ zero_extend 24) (bvadd T1_119 (_ bv1 8))))) (let ((?v_34 (bvsub (_ bv8 32) ?v_0))) (let ((?v_33 (bvadd ?v_34 (_ bv8 32)))) (let ((?v_32 (bvsub ?v_33 ?v_0))) (let ((?v_31 (bvadd ?v_32 (_ bv8 32)))) (let ((?v_30 (bvsub ?v_31 ?v_0))) (let ((?v_29 (bvsub ?v_30 ?v_0))) (let ((?v_28 (bvadd ?v_29 (_ bv8 32)))) (let ((?v_27 (bvsub ?v_28 ?v_0))) (let ((?v_26 (bvadd ?v_27 (_ bv8 32)))) (let ((?v_25 (bvsub ?v_26 ?v_0))) (let ((?v_24 (bvadd ?v_25 (_ bv8 32)))) (let ((?v_23 (bvsub ?v_24 ?v_0))) (let ((?v_22 (bvsub ?v_23 ?v_0))) (let ((?v_21 (bvadd ?v_22 (_ bv8 32)))) (let ((?v_20 (bvsub ?v_21 ?v_0))) (let ((?v_19 (bvadd ?v_20 (_ bv8 32)))) (let ((?v_18 (bvsub ?v_19 ?v_0))) (let ((?v_17 (bvadd ?v_18 (_ bv8 32)))) (let ((?v_16 (bvsub ?v_17 ?v_0))) (let ((?v_15 (bvsub ?v_16 ?v_0))) (let ((?v_14 (bvadd ?v_15 (_ bv8 32)))) (let ((?v_13 (bvsub ?v_14 ?v_0))) (let ((?v_12 (bvadd ?v_13 (_ bv8 32)))) (let ((?v_11 (bvsub ?v_12 ?v_0))) (let ((?v_10 (bvadd ?v_11 (_ bv8 32)))) (let ((?v_9 (bvsub ?v_10 ?v_0))) (let ((?v_8 (bvsub ?v_9 ?v_0))) (let ((?v_7 (bvadd ?v_8 (_ bv8 32)))) (let ((?v_6 (bvsub ?v_7 ?v_0))) (let ((?v_5 (bvadd ?v_6 (_ bv8 32)))) (let ((?v_4 (bvsub ?v_5 ?v_0))) (let ((?v_3 (bvadd ?v_4 (_ bv8 32)))) (let ((?v_2 (bvsub ?v_3 ?v_0))) (let ((?v_1 (bvsub ?v_2 ?v_0))) (and true (bvsle ?v_0 (bvsub (bvadd ?v_1 (_ bv8 32)) ?v_0)) (bvule T1_119 (_ bv8 8)) (bvule (_ bv2 8) T1_119) (bvslt ?v_1 ?v_0) (bvsle ?v_0 ?v_2) (bvsle ?v_0 ?v_3) (bvslt ?v_4 ?v_0) (bvsle ?v_0 ?v_5) (bvslt ?v_6 ?v_0) (bvsle ?v_0 ?v_7) (bvslt ?v_8 ?v_0) (bvsle ?v_0 ?v_9) (bvsle ?v_0 ?v_10) (bvslt ?v_11 ?v_0) (bvsle ?v_0 ?v_12) (bvslt ?v_13 ?v_0) (bvsle ?v_0 ?v_14) (bvslt ?v_15 ?v_0) (bvsle ?v_0 ?v_16) (bvsle ?v_0 ?v_17) (bvslt ?v_18 ?v_0) (bvsle ?v_0 ?v_19) (bvslt ?v_20 ?v_0) (bvsle ?v_0 ?v_21) (bvslt ?v_22 ?v_0) (bvsle ?v_0 ?v_23) (bvsle ?v_0 ?v_24) (bvslt ?v_25 ?v_0) (bvsle ?v_0 ?v_26) (bvslt ?v_27 ?v_0) (bvsle ?v_0 ?v_28) (bvslt ?v_29 ?v_0) (bvsle ?v_0 ?v_30) (bvsle ?v_0 ?v_31) (bvslt ?v_32 ?v_0) (bvsle ?v_0 ?v_33) (bvslt ?v_34 ?v_0) (bvsle ?v_0 (_ bv8 32)) (bvslt (_ bv0 32) ?v_0))))))))))))))))))))))))))))))))))))))
(check-sat)
(exit)
